     Program PWSCF v.5.3.0 (svn rev. 11974) starts on 10Aug2016 at 14:36:13

     Current dimensions of program PWSCF are:
     Max number of different atomic species (ntypx) = 10
     Max number of k-points (npk) =  40000
     Max angular momentum in pseudopotentials (lmaxx) =  3
               file o.UPF: wavefunction(s)  2P renormalized
               file mg.UPF: wavefunction(s)  2S renormalized

     Subspace diagonalization in iterative solution of the eigenvalue problem:
     a serial algorithm will be used

     Title:
     crystal

     bravais-lattice index     =            0
     lattice parameter (alat)  =       1.0000  a.u.
     unit-cell volume          =     124.4366 (a.u.)^3
     number of atoms/cell      =            2
     number of atomic types    =            2
     number of electrons       =        16.00
     number of Kohn-Sham states=            8
     kinetic-energy cutoff     =      60.0000  Ry
     charge density cutoff     =     600.0000  Ry
     convergence threshold     =      1.0E-08
     mixing beta               =       0.7000
     number of iterations used =            8  plain     mixing
     Exchange-correlation      =  SLA  PW   B86B PBC ( 1  4 22  4 0 0)
     nstep                     =           50

     celldm(1)=   1.000000  celldm(2)=   0.000000  celldm(3)=   0.000000
     celldm(4)=   0.000000  celldm(5)=   0.000000  celldm(6)=   0.000000

     crystal axes: (cart. coord. in units of alat)
               a(1) = (   3.962531  -3.962531  -0.000000 )
               a(2) = (  -3.962531   0.000000   3.962531 )
               a(3) = (   0.000000  -3.962531  -3.962531 )

     reciprocal axes: (cart. coord. in units 2 pi/alat)
               b(1) = (  0.126182 -0.126182  0.126182 )
               b(2) = ( -0.126182 -0.126182  0.126182 )
               b(3) = ( -0.126182 -0.126182 -0.126182 )

     PseudoPot. # 1 for  O read from file:
     ./o.UPF
     MD5 check sum: 13b81e899dae67e81c32dda3d3100adb
     Pseudo is Projector augmented-wave + core cor, Zval =  6.0
     Generated using "atomic" code by A. Dal Corso  (Quantum ESPRESSO distribution)
     Shape of augmentation charge: BESSEL
     Using radial grid of 1095 points,  4 beta functions with:
                l(1) =   0
                l(2) =   0
                l(3) =   1
                l(4) =   1
     Q(r) pseudized with 0 coefficients

     PseudoPot. # 2 for Mg read from file:
     ./mg.UPF
     MD5 check sum: 3731818b017de8b6cd193d3340279109
     Pseudo is Projector augmented-wave + core cor, Zval = 10.0
     Generated using "atomic" code by A. Dal Corso  (Quantum ESPRESSO distribution)
     Shape of augmentation charge: PSQ
     Using radial grid of 1129 points,  4 beta functions with:
                l(1) =   0
                l(2) =   0
                l(3) =   1
                l(4) =   1
     Q(r) pseudized with 0 coefficients

     atomic species   valence    mass     pseudopotential
        o              6.00    15.99940      O( 1.00)
        mg            10.00    24.30500     Mg( 1.00)

     48 Sym. Ops., with inversion, found

   Cartesian axes

     site n.     atom                  positions (alat units)
         1           mg  tau(   1) = (   0.0000000   0.0000000   0.0000000  )
         2           o   tau(   2) = (   0.0000000  -3.9625313   0.0000000  )

     number of k points=    10
                       cart. coord. in units 2pi/alat
        k(    1) = (  -0.0157727  -0.0473182   0.0157727), wk =   0.1875000
        k(    2) = (  -0.0473182  -0.0788637  -0.0157727), wk =   0.3750000
        k(    3) = (  -0.0473182  -0.0788637   0.0473182), wk =   0.1875000
        k(    4) = (  -0.0788637  -0.1104092   0.0157727), wk =   0.3750000
        k(    5) = (   0.0157727  -0.0157727   0.1104092), wk =   0.1875000
        k(    6) = (   0.0473182   0.0157727  -0.0473182), wk =   0.1875000
        k(    7) = (   0.0157727  -0.0157727  -0.0788637), wk =   0.1875000
        k(    8) = (   0.0157727  -0.0157727  -0.0157727), wk =   0.0625000
        k(    9) = (  -0.0473182  -0.1419547   0.0473182), wk =   0.1875000
        k(   10) = (   0.0473182  -0.0473182  -0.0473182), wk =   0.0625000

     Largest allocated arrays     est. size (Mb)     dimensions
     Largest temporary arrays     est. size (Mb)     dimensions

     Check: negative/imaginary core charge=   -0.000004    0.000000

     Initial potential from superposition of free atoms

     starting charge   15.99910, renormalised to   16.00000
     Starting wfc are   12 randomized atomic wfcs
     Checking if some PAW data can be deallocated...

     Self-consistent Calculation

     iteration #  1     ecut=    60.00 Ry     beta=0.70
     Davidson diagonalization with overlap
     ethr =  1.00E-02,  avg # of iterations =  1.5

     total energy              =    -183.41204062 Ry
     Harris-Foulkes estimate   =    -183.74218344 Ry
     estimated scf accuracy    <       0.43337852 Ry

[...]

     End of self-consistent calculation

          k =-0.0158-0.0473 0.0158 (   968 PWs)   bands (ev):

   -64.3826 -31.1694 -31.1423 -31.1403  -8.7690   5.7033   7.4915   7.4983

[...]

          k = 0.0158-0.0158 0.1104 (   979 PWs)   bands (ev):

[...]

     highest occupied level (ev):     7.8768

!    total energy              =    -183.63690130 Ry
     Harris-Foulkes estimate   =    -183.63690130 Ry
     estimated scf accuracy    <          9.1E-09 Ry

     total all-electron energy =      -551.749498 Ry

     The total energy is the sum of the following terms:

     one-electron contribution =     -87.44803320 Ry
     hartree contribution      =      49.27014681 Ry
     xc contribution           =     -25.45976288 Ry
     ewald contribution        =     -95.18021717 Ry
     one-center paw contrib.   =     -24.81903487 Ry

     convergence has been achieved in   8 iterations

     Forces acting on atoms (Ry/au):

     atom    1 type  2   force =     0.00000000    0.00000000    0.00000000
     atom    2 type  1   force =    -0.00000000    0.00000000   -0.00000000

     Total force =     0.000000     Total SCF correction =     0.000000

     entering subroutine stress ...

          total   stress  (Ry/bohr**3)                   (kbar)     P=    0.06
   0.00000038  -0.00000000  -0.00000000          0.06     -0.00     -0.00
  -0.00000000   0.00000038   0.00000000         -0.00      0.06      0.00
  -0.00000000   0.00000000   0.00000038         -0.00      0.00      0.06

     BFGS Geometry Optimization

     bfgs converged in   1 scf cycles and   0 bfgs steps
     (criteria: energy <  1.0E-04, force <  1.0E-03, cell <  5.0E-01)

     End of BFGS Geometry Optimization

     Final enthalpy =    -183.6369012984 Ry
Begin final coordinates
     new unit-cell volume =    124.43660 a.u.^3 (    18.43960 Ang^3 )

CELL_PARAMETERS (alat=  1.00000000)
   3.962531347  -3.962531347  -0.000000000
  -3.962531347   0.000000000   3.962531347
   0.000000000  -3.962531347  -3.962531347

ATOMIC_POSITIONS (crystal)
mg       0.000000000   0.000000000  -0.000000000
o        0.500000000   0.500000000   0.500000000
End final coordinates

     A final scf calculation at the relaxed structure.
     The G-vectors are recalculated for the final unit cell
     Results may differ from those at the preceding step.

     Title:
     crystal

     bravais-lattice index     =            0
     lattice parameter (alat)  =       1.0000  a.u.
     unit-cell volume          =     124.4366 (a.u.)^3
     number of atoms/cell      =            2
     number of atomic types    =            2
     number of electrons       =        16.00
     number of Kohn-Sham states=            8
     kinetic-energy cutoff     =      60.0000  Ry
     charge density cutoff     =     600.0000  Ry
     convergence threshold     =      1.0E-08
     mixing beta               =       0.7000
     number of iterations used =            8  plain     mixing
     Exchange-correlation      =  SLA  PW   B86B PBC ( 1  4 22  4 0 0)

     celldm(1)=   1.000000  celldm(2)=   0.000000  celldm(3)=   0.000000
     celldm(4)=   0.000000  celldm(5)=   0.000000  celldm(6)=   0.000000

     crystal axes: (cart. coord. in units of alat)
               a(1) = (   3.962531  -3.962531  -0.000000 )
               a(2) = (  -3.962531   0.000000   3.962531 )
               a(3) = (   0.000000  -3.962531  -3.962531 )

     reciprocal axes: (cart. coord. in units 2 pi/alat)
               b(1) = (  0.126182 -0.126182  0.126182 )
               b(2) = ( -0.126182 -0.126182  0.126182 )
               b(3) = ( -0.126182 -0.126182 -0.126182 )

     PseudoPot. # 1 for  O read from file:
     ./o.UPF
     MD5 check sum: 13b81e899dae67e81c32dda3d3100adb
     Pseudo is Projector augmented-wave + core cor, Zval =  6.0
     Generated using "atomic" code by A. Dal Corso  (Quantum ESPRESSO distribution)
     Shape of augmentation charge: BESSEL
     Using radial grid of 1095 points,  4 beta functions with:
                l(1) =   0
                l(2) =   0
                l(3) =   1
                l(4) =   1
     Q(r) pseudized with 0 coefficients

     PseudoPot. # 2 for Mg read from file:
     ./mg.UPF
     MD5 check sum: 3731818b017de8b6cd193d3340279109
     Pseudo is Projector augmented-wave + core cor, Zval = 10.0
     Generated using "atomic" code by A. Dal Corso  (Quantum ESPRESSO distribution)
     Shape of augmentation charge: PSQ
     Using radial grid of 1129 points,  4 beta functions with:
                l(1) =   0
                l(2) =   0
                l(3) =   1
                l(4) =   1
     Q(r) pseudized with 0 coefficients

     atomic species   valence    mass     pseudopotential
        o              6.00    15.99940      O( 1.00)
        mg            10.00    24.30500     Mg( 1.00)

     48 Sym. Ops., with inversion, found

   Cartesian axes

     site n.     atom                  positions (alat units)
         1           mg  tau(   1) = (   0.0000000   0.0000000   0.0000000  )
         2           o   tau(   2) = (   0.0000000  -3.9625313   0.0000000  )

     number of k points=    10
                       cart. coord. in units 2pi/alat
        k(    1) = (  -0.0157727  -0.0473182   0.0157727), wk =   0.1875000
        k(    2) = (  -0.0473182  -0.0788637  -0.0157727), wk =   0.3750000
        k(    3) = (  -0.0473182  -0.0788637   0.0473182), wk =   0.1875000
        k(    4) = (  -0.0788637  -0.1104092   0.0157727), wk =   0.3750000
        k(    5) = (   0.0157727  -0.0157727   0.1104092), wk =   0.1875000
        k(    6) = (   0.0473182   0.0157727  -0.0473182), wk =   0.1875000
        k(    7) = (   0.0157727  -0.0157727  -0.0788637), wk =   0.1875000
        k(    8) = (   0.0157727  -0.0157727  -0.0157727), wk =   0.0625000
        k(    9) = (  -0.0473182  -0.1419547   0.0473182), wk =   0.1875000
        k(   10) = (   0.0473182  -0.0473182  -0.0473182), wk =   0.0625000

     Largest allocated arrays     est. size (Mb)     dimensions
     Largest temporary arrays     est. size (Mb)     dimensions

     Check: negative/imaginary core charge=   -0.000004    0.000000

     Initial potential from superposition of free atoms

     starting charge   15.99910, renormalised to   16.00000
     Starting wfc are   12 randomized atomic wfcs
     Checking if some PAW data can be deallocated...

     Writing output data file crystal.save

     Self-consistent Calculation

[...]

     total energy              =    -183.63690128 Ry
     Harris-Foulkes estimate   =    -183.63690133 Ry
     estimated scf accuracy    <       0.00000009 Ry

     iteration #  8     ecut=    60.00 Ry     beta=0.70
     Davidson diagonalization with overlap
     ethr =  5.68E-10,  avg # of iterations =  3.1

     End of self-consistent calculation

[...]

          k =-0.0473-0.1420 0.0473 (   977 PWs)   bands (ev):

[...]

          k = 0.0473-0.0473-0.0473 (   984 PWs)   bands (ev):

   -64.3816 -31.2113 -31.1417 -31.1417  -8.2215   3.8766   7.4062   7.4062

     highest occupied level (ev):     7.8768

!    total energy              =    -183.63690130 Ry
     Harris-Foulkes estimate   =    -183.63690130 Ry
     estimated scf accuracy    <          4.4E-09 Ry

     total all-electron energy =      -551.749498 Ry

     The total energy is the sum of the following terms:

     one-electron contribution =     -87.44797288 Ry
     hartree contribution      =      49.27005285 Ry
     xc contribution           =     -25.45973943 Ry
     ewald contribution        =     -95.18021717 Ry
     one-center paw contrib.   =     -24.81902467 Ry

     convergence has been achieved in   8 iterations

     Forces acting on atoms (Ry/au):

     atom    1 type  2   force =    -0.00000000   -0.00000000    0.00000000
     atom    2 type  1   force =     0.00000000    0.00000000   -0.00000000

     Total force =     0.000000     Total SCF correction =     0.000000

     entering subroutine stress ...

          total   stress  (Ry/bohr**3)                   (kbar)     P=   -0.04
  -0.00000029   0.00000000   0.00000000         -0.04      0.00      0.00
   0.00000000  -0.00000029  -0.00000000          0.00     -0.04     -0.00
   0.00000000  -0.00000000  -0.00000029          0.00     -0.00     -0.04

     Writing output data file crystal.save

     General routines

     Parallel routines

   This run was terminated on:  14:36:20  10Aug2016

   JOB DONE.